10
5
119268
0
0
75 82 74 83 79
1
0
173 209 206 200 198
2
0
83 75 76 78 65
3
0
96 68 83 73 72
4
0
87 128 92 104 110
5
0
43 42 35 39 35
6
0
81 60 48 64 71
7
0
12 18 9 12 10
8
0
14 17 26 16 20
9
0
4 2 5 7 4
